Version identifier: 22.1.0.0 | 2022-03-09 | 1a383f8ce
CPXPARAM_Threads                                 1
CPXPARAM_MIP_Strategy_VariableSelect             3
CPXPARAM_TimeLimit                               599.993012464
Tried aggregator 1 time.
MIP Presolve eliminated 16 rows and 0 columns.
MIP Presolve modified 5 coefficients.
Reduced MIP has 1809 rows, 7500 columns, and 104578 nonzeros.
Reduced MIP has 7500 binaries, 0 generals, 0 SOSs, and 0 indicators.
Presolve time = 0.05 sec. (38.92 ticks)
Probing time = 0.01 sec. (4.16 ticks)
Tried aggregator 1 time.
Detecting symmetries...
Reduced MIP has 1809 rows, 7500 columns, and 104578 nonzeros.
Reduced MIP has 7500 binaries, 0 generals, 0 SOSs, and 0 indicators.
Presolve time = 0.06 sec. (50.17 ticks)
Probing time = 0.01 sec. (4.16 ticks)
Clique table members: 300.
MIP emphasis: balance optimality and feasibility.
MIP search method: dynamic search.
Parallel mode: none, using 1 thread.
Root relaxation solution time = 0.16 sec. (152.19 ticks)

        Nodes                                         Cuts/
   Node  Left     Objective  IInf  Best Integer    Best Bound    ItCnt     Gap

      0     0        0.0000   301                      0.0000     1174         
*     0+    0                            0.0000        0.0000             0.00%
      0     0        cutoff              0.0000        0.0000     1174    0.00%
Elapsed time = 0.96 sec. (829.26 ticks, tree = 0.01 MB, solutions = 1)

Root node processing (before b&c):
  Real time             =    0.96 sec. (829.48 ticks)
Sequential b&c:
  Real time             =    0.00 sec. (0.00 ticks)
                          ------------
Total (root+branch&cut) =    0.96 sec. (829.48 ticks)
Primal:	300
Dual:	300
Status:	Optimal
Time:	1.01431
Sequence:
	2
	2
	21
	2
	17
	15
	10
	12
	9
	10
	5
	19
	12
	9
	10
	10
	4
	22
	15
	7
	11
	7
	23
	3
	5
	19
	5
	8
	7
	7
	6
	17
	7
	11
	21
	13
	18
	17
	16
	3
	23
	24
	2
	13
	7
	17
	18
	4
	5
	20
	8
	2
	24
	12
	8
	24
	9
	21
	17
	22
	1
	4
	12
	24
	14
	11
	20
	1
	14
	23
	20
	15
	0
	16
	9
	6
	2
	13
	24
	16
	19
	0
	18
	19
	5
	6
	23
	0
	11
	20
	19
	21
	23
	14
	15
	16
	23
	13
	11
	23
	6
	17
	1
	21
	3
	23
	2
	19
	12
	17
	8
	1
	16
	15
	1
	9
	20
	12
	4
	23
	6
	20
	15
	18
	0
	14
	23
	7
	14
	11
	15
	16
	14
	3
	1
	2
	19
	18
	16
	6
	0
	6
	16
	24
	17
	3
	21
	11
	20
	10
	9
	22
	18
	13
	22
	24
	11
	21
	12
	17
	23
	1
	8
	22
	20
	3
	0
	21
	15
	8
	12
	17
	3
	7
	6
	8
	0
	3
	18
	4
	4
	10
	18
	15
	16
	5
	8
	24
	0
	19
	8
	4
	21
	21
	4
	1
	9
	1
	16
	4
	5
	11
	20
	19
	5
	0
	9
	19
	17
	12
	6
	21
	1
	6
	18
	4
	24
	0
	14
	1
	17
	20
	1
	17
	16
	11
	1
	12
	14
	24
	11
	12
	14
	3
	16
	23
	11
	14
	17
	1
	11
	7
	5
	9
	8
	6
	15
	21
	0
	9
	19
	21
	6
	0
	0
	14
	1
	10
	9
	12
	15
	8
	24
	2
	22
	4
	0
	11
	23
	9
	1
	17
	10
	1
	2
	2
	4
	24
	11
	14
	16
	3
	9
	10
	9
	0
	19
	16
	21
	11
	15
	8
	6
	6
	20
	24
	11
	5
	20
	2
